-------------------------------------------------------
GLPK Simplex Optimizer 5.0
1877 rows, 2712 columns, 10575 non-zeros
      0: obj =  -0.000000000e+00 inf =   1.248e+06 (876)
   2354: obj =  -0.000000000e+00 inf =   4.864e-11 (0) 11
*  2542: obj =   8.769972144e-01 inf =   1.956e-13 (0) 2
OPTIMAL LP SOLUTION FOUND
-------------------------------------------------------

Obj value:0.876997

